row=9;
column=9;
Board=[|0,0,64,0,0,0,0,0,0|0,0,0,0,36,0,18,0,72|0,0,0,45,0,0,0,18,16|54,0,0,0,0,0,0,0,72|0,0,0,18,0,0,0,18,0|0,36,0,81,0,81,0,0,0|24,0,0,0,0,0,16,0,32|0,0,0,0,0,0,0,81,72|12,8,0,0,0,54,24,0,48|];
